benchmarks/bfuzz0/637622977137791466421698174412512527514.smt2
(set-logic QF_FP)
(declare-const x0 (_ FloatingPoint 11 53))
(declare-const x1 (_ FloatingPoint 11 53))
(declare-const x2 (_ FloatingPoint 11 53))
(declare-const x3 (_ FloatingPoint 11 53))
(declare-const x4 (_ FloatingPoint 11 53))
(declare-const x5 (_ FloatingPoint 11 53))
(declare-const x6 (_ FloatingPoint 11 53))
(declare-const x7 (_ FloatingPoint 11 53))
(declare-const x8 (_ FloatingPoint 11 53))
(declare-const x9 (_ FloatingPoint 11 53))
(declare-const x10 (_ FloatingPoint 11 53))
(declare-const x11 (_ FloatingPoint 11 53))
(declare-const x12 (_ FloatingPoint 11 53))
(declare-const x13 (_ FloatingPoint 11 53))
(declare-const x14 (_ FloatingPoint 11 53))
(assert (fp.geq (fp.mul RNE x5 x8) (fp.mul RNE x4 x12)))
(assert (fp.leq (fp.sub RNE x8 x9) (fp.sub RNE x10 x9)))
(assert (fp.leq (fp.sub RNE x1 x7) (fp.sub RNE x8 x3)))
(assert (fp.geq (fp.div RNE x14 x5) (fp.sub RNE x6 x12)))
(assert (fp.geq (fp.div RNE x14 x8) (fp.mul RNE x13 x4)))
(assert (fp.geq (fp.add RNE x1 x10) (fp.div RNE x3 x12)))
(assert (fp.gt (fp.sub RNE x0 x11) (fp.sub RNE x13 x4)))
(assert (fp.lt (fp.mul RNE x14 x10) (fp.neg x0)))
(assert (fp.eq (fp.mul RNE x10 x3) (fp.div RNE x5 x1)))
(assert (fp.eq (fp.sub RNE x7 x6) (fp.sub RNE x12 x11)))
(assert (fp.leq (fp.neg x10) (fp.add RNE x5 x10)))
(assert (fp.lt (fp.add RNE x11 x11) (fp.mul RNE x13 x3)))
(assert (fp.lt (fp.add RNE x1 x4) (fp.sub RNE x5 x7)))
(assert (fp.lt (fp.div RNE x6 x6) (fp.div RNE x1 x4)))
(assert (fp.geq (fp.add RNE x4 x4) (fp.sub RNE x3 x5)))
(assert (fp.geq (fp.div RNE x10 x4) (fp.mul RNE x4 x0)))
(assert (fp.leq (fp.add RNE x14 x9) (fp.div RNE x14 x0)))
(assert (fp.leq (fp.div RNE x2 x14) (fp.mul RNE x7 x13)))
(assert (fp.lt (fp.add RNE x3 x9) (fp.mul RNE x11 x3)))
(check-sat)
