db/data/637622977137791466421698174412512527514.z3.out
-------------------
2500.155170591
